342 5
10 10 10 10 10 

0 0 0 0 0 0 5 2 14 26 38 50 
0 0 0 0 0 0 2 3 8 
4 0 1 0 0 0 2 12 4 
7 0 4 0 0 0 1 5 
1 0 9 0 0 0 1 6 
1 0 4 0 0 0 3 11 7 311 
5 0 3 0 0 0 1 9 
9 0 4 0 0 0 1 9 
2 0 9 0 0 0 1 10 
5 0 7 0 0 0 1 13 
8 0 5 0 0 0 1 13 
3 0 4 0 0 0 1 13 
0 0 0 0 0 0 1 62 
0 0 0 0 0 0 2 15 24 
3 0 0 0 0 1 1 16 
5 0 0 0 0 4 3 23 22 17 
10 0 0 0 0 6 1 18 
5 0 0 0 0 5 1 19 
5 0 0 0 0 5 1 20 
5 0 0 0 0 4 1 21 
2 0 0 0 0 6 2 25 101 
3 0 0 0 0 5 1 25 
5 0 0 0 0 7 1 25 
4 0 0 0 0 7 1 25 
0 0 0 0 0 0 1 62 
0 0 0 0 0 0 2 27 30 
3 0 0 0 0 1 2 33 28 
10 0 0 0 0 5 1 29 
9 0 0 0 0 5 2 35 31 
5 0 0 0 0 1 2 35 34 
4 0 0 0 0 2 1 32 
8 0 0 0 0 8 1 34 
3 0 0 0 0 5 2 34 240 
1 0 0 0 0 10 1 36 
10 0 0 0 0 9 1 36 
8 0 0 0 0 4 1 37 
0 0 0 0 0 0 1 62 
0 0 0 0 0 0 1 39 
9 0 1 0 0 0 3 41 40 182 
2 0 6 0 0 0 1 42 
4 0 7 0 0 0 3 48 47 44 
7 0 3 0 0 0 1 43 
6 0 5 0 0 0 2 47 44 
4 0 4 0 0 0 1 45 
4 0 8 0 0 0 1 46 
5 0 3 0 0 0 1 49 
6 0 8 0 0 0 1 49 
3 0 5 0 0 0 1 49 
0 0 0 0 0 0 1 62 
0 0 0 0 0 0 2 51 60 
7 0 0 0 0 1 2 57 52 
3 0 0 0 0 7 1 53 
5 0 0 0 0 4 2 59 54 
3 0 0 0 0 5 1 55 
10 0 0 0 0 8 2 56 325 
1 0 0 0 0 6 1 58 
8 0 0 0 0 4 1 59 
10 0 0 0 0 4 1 61 
2 0 0 0 0 7 1 61 
2 0 0 0 0 4 1 61 
0 0 0 0 0 0 1 62 
0 0 0 0 0 0 5 63 95 127 159 191 
0 0 0 0 0 0 2 64 93 
7 0 1 1 0 1 1 65 
10 0 10 3 0 6 1 66 
7 0 5 4 0 5 2 67 154 
3 0 8 3 0 5 1 68 
5 0 3 10 0 4 2 87 69 
6 0 4 3 0 6 1 70 
4 0 4 4 0 5 1 71 
6 0 7 7 0 4 3 82 74 72 
7 0 3 7 0 5 2 76 73 
1 0 5 5 0 3 3 80 78 75 
8 0 4 2 0 4 2 80 79 
9 0 5 5 0 3 1 77 
7 0 6 5 0 6 1 77 
4 0 5 7 0 6 1 79 
8 0 3 7 0 5 1 79 
2 0 10 5 0 3 1 81 
8 0 1 2 0 4 1 81 
6 0 5 5 0 7 1 83 
7 0 2 6 0 8 1 83 
5 0 2 3 0 5 2 92 84 
9 0 5 4 0 7 1 85 
9 0 10 5 0 6 1 86 
9 0 6 7 0 5 1 88 
4 0 6 5 0 8 1 88 
1 0 4 4 0 8 1 89 
4 0 4 6 0 5 1 90 
2 0 4 5 0 3 1 91 
9 0 2 6 0 2 1 94 
8 0 10 7 0 5 1 94 
10 0 6 7 0 6 1 94 
0 0 0 0 0 0 1 317 
0 0 0 0 0 0 4 96 123 124 125 
9 0 0 1 2 1 1 97 
5 0 0 3 3 7 2 122 98 
6 0 0 8 6 4 1 99 
5 0 0 5 4 6 1 100 
2 0 0 5 1 5 4 121 120 119 101 
10 0 0 6 8 5 1 102 
7 0 0 3 5 4 1 103 
2 0 0 7 3 4 1 104 
4 0 0 1 4 3 1 105 
7 0 0 5 5 4 1 106 
6 0 0 3 6 8 1 107 
4 0 0 7 3 4 2 118 108 
10 0 0 4 3 2 1 109 
3 0 0 9 2 6 1 110 
3 0 0 4 5 5 1 111 
7 0 0 5 7 6 1 112 
7 0 0 2 9 5 1 113 
6 0 0 7 7 5 1 114 
1 0 0 8 3 5 1 115 
9 0 0 5 10 9 1 116 
8 0 0 8 5 9 1 117 
2 0 0 1 5 6 1 126 
9 0 0 7 5 2 1 126 
6 0 0 5 2 6 1 126 
1 0 0 5 10 3 1 126 
3 0 0 5 4 7 1 126 
8 0 0 4 8 6 1 126 
3 0 0 6 7 6 2 126 142 
9 0 0 4 4 4 1 126 
2 0 0 7 4 3 1 126 
0 0 0 0 0 0 1 317 
0 0 0 0 0 0 5 128 154 155 156 157 
6 0 0 1 1 1 1 129 
5 0 0 3 8 3 1 130 
7 0 0 4 4 5 2 153 131 
8 0 0 7 5 7 3 152 151 132 
6 0 0 8 6 9 1 133 
1 0 0 5 3 8 1 134 
4 0 0 6 6 8 1 135 
7 0 0 3 8 5 1 136 
3 0 0 9 5 4 1 137 
6 0 0 3 3 3 1 138 
2 0 0 3 7 3 1 139 
5 0 0 7 7 7 3 150 140 290 
8 0 0 4 4 4 1 141 
7 0 0 9 7 4 1 142 
5 0 0 8 5 5 1 143 
10 0 0 2 3 8 1 144 
7 0 0 1 6 4 1 145 
3 0 0 8 3 2 1 146 
4 0 0 4 6 2 1 147 
9 0 0 4 6 2 1 148 
8 0 0 7 3 2 1 149 
6 0 0 3 3 5 1 158 
5 0 0 4 4 7 1 158 
8 0 0 3 4 7 1 158 
3 0 0 6 10 8 1 158 
6 0 0 4 3 5 1 158 
4 0 0 8 3 8 1 158 
3 0 0 3 3 6 1 158 
8 0 0 7 9 5 1 158 
5 0 0 6 5 3 1 158 
0 0 0 0 0 0 1 317 
0 0 0 0 0 0 2 160 185 
7 1 0 1 1 0 1 161 
5 4 0 6 6 0 1 162 
3 7 0 5 5 0 1 163 
4 4 0 4 7 0 1 164 
8 3 0 8 7 0 2 176 165 
4 4 0 3 2 0 1 166 
10 7 0 7 6 0 1 167 
3 5 0 2 8 0 3 175 170 168 
1 7 0 6 5 0 2 172 169 
4 7 0 6 4 0 3 178 174 171 
8 5 0 4 2 0 2 178 177 
3 4 0 5 5 0 1 173 
7 7 0 5 3 0 1 173 
9 6 0 5 4 0 1 177 
6 3 0 6 6 0 1 177 
1 4 0 6 4 0 1 178 
3 8 0 7 8 0 1 177 
9 3 0 6 5 0 2 179 196 
9 7 0 4 7 0 1 179 
2 6 0 6 6 0 1 180 
7 7 0 3 5 0 2 189 181 
10 4 0 2 4 0 1 182 
7 8 0 5 9 0 1 183 
2 7 0 3 4 0 1 184 
7 5 0 5 5 0 1 186 
3 5 0 7 5 0 1 186 
9 3 0 4 3 0 1 187 
9 4 0 6 7 0 1 188 
3 2 0 9 3 0 1 190 
6 3 0 4 4 0 1 190 
0 0 0 0 0 0 1 317 
0 0 0 0 0 0 1 192 
3 0 0 0 0 1 2 195 193 
5 0 0 0 0 2 1 194 
7 0 0 0 0 7 2 198 196 
8 0 0 0 0 8 2 198 197 
1 0 0 0 0 10 1 197 
8 0 0 0 0 7 3 201 199 271 
3 0 0 0 0 6 1 199 
8 0 0 0 0 1 1 200 
7 0 0 0 0 6 1 202 
7 0 0 0 0 2 1 202 
0 0 0 0 0 0 4 203 225 237 259 
0 0 0 0 0 0 3 204 209 211 
8 0 0 2 0 2 1 205 
1 0 0 1 0 5 1 206 
8 0 0 9 0 3 1 207 
7 0 0 5 0 3 1 208 
6 0 0 4 0 6 2 217 210 
8 0 0 6 0 5 3 217 214 213 
8 0 0 7 0 7 1 212 
10 0 0 3 0 3 1 212 
4 0 0 3 0 6 1 213 
5 0 0 6 0 6 2 223 215 
3 0 0 3 0 10 2 223 216 
6 0 0 8 0 4 1 216 
10 0 0 4 0 3 1 218 
4 0 0 10 0 4 2 218 299 
2 0 0 6 0 5 1 219 
5 0 0 5 0 8 1 220 
3 0 0 4 0 5 1 221 
3 0 0 4 0 4 1 222 
6 0 0 4 0 3 1 224 
9 0 0 6 0 8 1 224 
0 0 0 0 0 0 1 317 
0 0 0 0 0 0 4 226 233 234 235 
7 0 1 0 0 0 1 227 
7 0 5 0 0 0 1 228 
7 0 4 0 0 0 1 229 
4 0 7 0 0 0 1 230 
2 0 5 0 0 0 1 231 
5 0 8 0 0 0 2 232 267 
7 0 3 0 0 0 1 236 
1 0 10 0 0 0 1 236 
8 0 4 0 0 0 1 236 
3 0 3 0 0 0 1 236 
0 0 0 0 0 0 3 281 293 305 
0 0 0 0 0 0 1 238 
9 1 0 0 0 1 2 247 239 
7 4 0 0 0 1 1 240 
9 6 0 0 0 5 2 249 241 
2 4 0 0 0 8 1 242 
3 4 0 0 0 5 2 250 243 
4 7 0 0 0 5 1 244 
7 5 0 0 0 5 1 245 
6 6 0 0 0 2 2 257 246 
7 4 0 0 0 5 1 248 
1 7 0 0 0 4 1 248 
8 8 0 0 0 5 2 255 251 
4 6 0 0 0 8 1 250 
10 6 0 0 0 4 2 257 253 
8 2 0 0 0 9 1 252 
7 4 0 0 0 5 1 253 
10 7 0 0 0 5 2 254 333 
4 5 0 0 0 3 1 256 
5 6 0 0 0 5 1 256 
1 3 0 0 0 10 1 258 
10 5 0 0 0 5 1 258 
0 0 0 0 0 0 1 317 
0 0 0 0 0 0 3 260 268 271 
4 0 0 0 1 1 1 261 
5 0 0 0 6 3 1 262 
10 0 0 0 4 6 1 263 
6 0 0 0 2 2 1 264 
8 0 0 0 7 6 2 276 265 
6 0 0 0 5 3 1 266 
1 0 0 0 8 4 1 267 
6 0 0 0 6 7 2 278 269 
2 0 0 0 9 5 2 279 272 
3 0 0 0 4 7 1 270 
6 0 0 0 7 4 1 272 
3 0 0 0 5 4 1 272 
6 0 0 0 4 5 1 273 
6 0 0 0 2 6 1 274 
1 0 0 0 7 4 1 275 
4 0 0 0 4 4 1 277 
3 0 0 0 6 9 1 277 
7 0 0 0 5 8 1 280 
9 0 0 0 4 3 1 280 
2 0 0 0 4 9 1 280 
0 0 0 0 0 0 1 317 
0 0 0 0 0 0 1 282 
2 1 0 0 0 0 1 283 
8 3 0 0 0 0 1 284 
4 2 0 0 0 0 2 291 285 
8 5 0 0 0 0 2 290 286 
6 8 0 0 0 0 2 289 287 
7 4 0 0 0 0 1 288 
5 6 0 0 0 0 1 292 
8 5 0 0 0 0 1 292 
8 8 0 0 0 0 1 292 
8 8 0 0 0 0 1 292 
0 0 0 0 0 0 1 317 
0 0 0 0 0 0 3 294 300 301 
9 1 0 0 0 0 1 295 
7 4 0 0 0 0 1 296 
4 4 0 0 0 0 2 303 297 
1 3 0 0 0 0 1 298 
8 8 0 0 0 0 1 299 
5 5 0 0 0 0 1 302 
5 5 0 0 0 0 1 302 
5 7 0 0 0 0 1 302 
3 10 0 0 0 0 1 304 
4 3 0 0 0 0 1 304 
0 0 0 0 0 0 1 317 
0 0 0 0 0 0 3 306 310 312 
4 0 0 1 0 0 2 315 307 
5 0 0 7 0 0 1 308 
7 0 0 5 0 0 1 309 
5 0 0 3 0 0 1 311 
3 0 0 6 0 0 1 311 
4 0 0 8 0 0 1 313 
4 0 0 7 0 0 1 313 
1 0 0 5 0 0 1 314 
8 0 0 3 0 0 1 316 
3 0 0 5 0 0 1 316 
0 0 0 0 0 0 1 317 
0 0 0 0 0 0 2 318 330 
0 0 0 0 0 0 2 319 321 
3 0 0 0 1 0 1 320 
9 0 0 0 3 0 2 325 322 
6 0 0 0 7 0 2 325 322 
1 0 0 0 8 0 1 323 
4 0 0 0 5 0 2 327 324 
2 0 0 0 5 0 1 326 
1 0 0 0 4 0 1 326 
2 0 0 0 6 0 1 328 
4 0 0 0 6 0 1 328 
8 0 0 0 5 0 1 329 
0 0 0 0 0 0 1 342 
0 0 0 0 0 0 1 331 
6 0 0 0 1 0 2 340 332 
7 0 0 0 4 0 2 337 333 
5 0 0 0 5 0 1 334 
3 0 0 0 7 0 2 339 335 
2 0 0 0 6 0 1 336 
8 0 0 0 6 0 1 338 
3 0 0 0 5 0 1 338 
7 0 0 0 4 0 1 341 
3 0 0 0 8 0 1 341 
5 0 0 0 4 0 1 341 
0 0 0 0 0 0 1 342 
0 0 0 0 0 0 0 
